r = [
0,9,44,66,80,99,61,1,113,66,115,0
];
p = [
0,6,11,3,1,29,22,16,16,21,7,0
];
e = [
0,15,3,16,8,18,9,15,1,13,11,0
];
d = [
0,69,79,69,86,128,83,26,129,87,122,154
];
d_bar = [
0,74,89,72,87,154,103,40,143,106,128,154
];
w = [
0,3,0.3,5.333333333,8,0.692307692,0.45,1.071428571,0.071428571,0.684210526,1.833333333,0
];
